% seed = 4384710

mint = 62;
% maxt = 176;

nActs = 42;
dur = [0,8,6,3,2,6,7,3,1,2,3,9,5,2,1,3,2,2,2,9,2,2,8,5,10,6,2,2,2,5,2,7,4,4,5,5,9,3,5,4,8,0];

nSkills = 4;
sreq = [| 0,0,0,0,
	| 0,5,2,7,
	| 2,3,5,3,
	| 2,6,0,4,
	| 2,2,2,5,
	| 0,4,0,2,
	| 6,5,4,0,
	| 2,3,3,5,
	| 0,4,0,7,
	| 2,6,4,2,
	| 0,4,0,3,
	| 3,6,3,0,
	| 7,6,0,0,
	| 0,0,7,3,
	| 2,0,5,4,
	| 4,5,4,0,
	| 4,3,2,5,
	| 3,6,5,0,
	| 2,3,3,5,
	| 3,4,7,3,
	| 4,0,7,0,
	| 3,2,3,6,
	| 0,5,4,2,
	| 1,5,4,0,
	| 6,2,4,0,
	| 0,6,0,5,
	| 7,0,0,7,
	| 4,4,3,3,
	| 3,3,2,5,
	| 5,4,2,3,
	| 4,2,3,5,
	| 4,1,5,2,
	| 0,0,3,7,
	| 5,0,0,3,
	| 3,3,2,3,
	| 6,6,0,0,
	| 5,0,3,0,
	| 4,4,0,4,
	| 3,3,1,4,
	| 0,4,4,3,
	| 0,0,7,7,
	| 0,0,0,0, |];

nResources = 30;
mastery = [| true,false,true,false,
	| false,false,true,false,
	| false,true,true,false,
	| false,true,true,true,
	| false,false,false,true,
	| true,false,false,false,
	| true,true,true,false,
	| true,true,false,false,
	| false,false,false,true,
	| true,false,true,true,
	| false,false,false,true,
	| true,false,false,false,
	| false,true,false,false,
	| false,false,false,true,
	| true,true,true,false,
	| true,false,true,false,
	| false,false,false,true,
	| true,false,true,false,
	| true,true,false,false,
	| true,true,true,false,
	| false,true,true,false,
	| false,false,true,false,
	| true,true,true,false,
	| true,true,true,false,
	| true,true,false,false,
	| false,true,false,false,
	| false,true,true,true,
	| true,false,false,false,
	| false,false,true,true,
	| true,false,false,false, |];

nPrecs = 61;
pred = [1,1,1,2,2,2,3,3,3,4,4,5,6,6,7,8,8,8,9,9,10,11,11,11,12,13,13,13,14,15,15,15,16,17,18,18,19,20,20,21,22,23,24,25,25,26,27,28,29,30,31,32,33,34,35,36,37,38,39,40,41];
succ = [2,3,4,5,30,8,11,12,7,34,10,6,9,13,32,25,20,21,10,12,14,33,35,14,29,18,22,15,19,17,26,16,20,41,37,23,39,40,24,29,27,26,29,36,28,31,40,34,33,31,38,37,37,38,41,39,41,39,42,42,42];

nUnrels = 541;
unpred = [2,2,2,2,2,2,3,3,3,3,3,3,3,3,3,3,3,3,3,3,3,3,3,3,3,3,3,3,3,3,3,3,4,4,4,4,4,4,4,4,4,4,4,4,4,4,4,4,4,4,4,4,4,4,4,4,4,4,4,4,4,4,4,5,5,5,5,5,5,5,5,5,5,5,6,6,6,6,6,6,6,6,6,6,6,7,7,7,7,7,7,7,7,7,7,7,7,7,7,7,7,7,7,7,7,7,7,7,7,7,7,7,7,7,7,7,8,8,8,8,8,8,8,8,8,8,8,8,8,8,8,8,8,8,8,9,9,9,9,9,9,9,9,9,9,9,9,9,9,9,9,9,9,9,9,9,9,9,10,10,10,10,10,10,10,10,10,10,10,10,10,10,10,10,10,10,10,10,10,10,10,10,10,10,10,10,11,11,11,11,11,11,11,11,11,11,11,11,11,11,11,11,11,11,11,11,11,11,11,12,12,12,12,12,12,12,12,12,12,12,12,12,12,12,12,12,12,12,12,12,12,12,12,12,13,13,13,13,13,13,13,13,13,13,14,14,14,14,14,14,14,14,14,14,14,14,14,14,14,14,14,14,14,14,14,14,14,14,14,15,15,15,15,15,15,15,15,15,15,15,15,15,16,16,16,16,16,16,16,16,16,16,16,16,16,16,16,16,16,16,17,17,17,17,17,17,17,17,17,17,17,17,17,17,17,17,17,17,17,17,17,17,17,18,18,18,18,18,18,18,18,18,18,18,18,18,18,18,18,19,19,19,19,19,19,19,19,19,19,19,19,19,19,19,19,19,19,19,19,19,20,20,20,20,20,20,20,20,20,20,20,20,20,20,20,21,21,21,21,21,21,21,21,21,21,21,21,21,21,21,21,22,22,22,22,22,22,22,22,22,22,22,22,22,22,22,22,22,23,23,23,23,23,23,23,23,23,23,23,23,23,23,24,24,24,24,24,24,24,24,24,24,24,24,24,25,25,25,25,25,25,25,25,25,25,25,26,26,26,26,26,26,26,26,26,26,26,26,27,27,27,27,27,27,27,27,27,27,27,27,27,28,28,28,28,28,28,28,28,28,28,29,29,29,29,29,29,29,29,29,30,30,30,30,30,30,30,30,31,31,31,31,31,31,31,31,32,32,32,32,32,32,32,33,33,33,33,33,33,34,34,34,34,34,35,35,35,35,35,36,36,36,36,37,37,37,38,38,39,39,40];
unsucc = [3,4,7,11,32,35,4,5,6,8,9,10,13,15,16,17,18,20,21,22,23,24,25,26,27,28,30,31,34,36,38,40,5,6,7,8,9,11,12,13,15,16,17,18,20,21,22,23,24,25,26,27,28,29,30,31,32,33,35,36,37,40,41,7,8,11,21,25,28,30,32,34,35,36,7,8,11,21,25,28,30,32,34,35,36,8,9,10,11,12,13,14,15,16,17,18,19,20,21,22,23,24,25,26,27,28,29,30,31,33,34,35,36,38,39,40,9,10,11,12,13,14,15,16,17,18,19,22,23,26,27,30,31,32,35,11,13,15,16,17,18,20,21,22,23,24,25,26,27,28,30,31,32,34,35,36,38,40,11,12,13,15,16,17,18,20,21,22,23,24,25,26,27,28,29,30,31,32,33,34,35,36,37,38,40,41,12,13,15,16,17,18,20,21,22,23,24,25,26,27,28,29,30,31,32,34,36,38,40,13,14,15,16,17,18,19,20,21,22,23,24,25,26,27,28,30,31,32,34,35,36,38,39,40,14,19,21,25,28,30,32,34,35,36,15,16,17,18,20,21,22,23,24,25,26,27,28,29,30,31,32,33,34,35,36,37,38,40,41,18,19,21,22,23,25,27,28,30,32,34,35,36,17,18,19,21,22,23,25,26,27,28,30,31,32,34,35,36,38,39,18,19,20,21,22,23,24,25,26,27,28,29,30,31,32,33,34,35,36,37,38,39,40,19,20,21,22,24,25,27,28,29,30,32,33,34,35,36,40,20,21,22,23,24,25,26,27,28,29,30,31,32,33,34,35,36,37,38,40,41,21,22,23,25,26,27,28,30,31,32,34,35,36,38,39,22,23,24,25,26,27,28,30,31,32,34,35,36,38,39,40,23,24,25,26,28,29,30,31,32,33,34,35,36,37,38,39,41,24,25,27,28,29,30,32,33,34,35,36,37,40,41,25,26,27,28,30,31,32,34,35,36,38,39,40,26,27,29,30,31,32,33,35,37,40,41,27,28,29,30,32,33,34,35,36,37,40,41,28,29,30,31,32,33,34,35,36,37,38,39,41,29,30,31,32,33,35,36,37,40,41,30,31,32,34,35,36,38,39,40,32,33,34,35,36,37,40,41,32,33,34,35,36,37,40,41,33,34,35,36,38,39,40,34,35,36,38,39,40,35,36,37,40,41,36,37,38,39,40,37,38,40,41,38,39,40,40,41,40,41,41];

USEFUL_RES = [{},
	{1,2,3,4,5,7,8,9,10,11,13,14,15,16,17,18,19,20,21,22,23,24,25,26,27,29},
	{1,2,3,4,5,6,7,8,9,10,11,12,13,14,15,16,17,18,19,20,21,22,23,24,25,26,27,28,29,30},
	{1,3,4,5,6,7,8,9,10,11,12,13,14,15,16,17,18,19,20,21,23,24,25,26,27,28,29,30},
	{1,2,3,4,5,6,7,8,9,10,11,12,13,14,15,16,17,18,19,20,21,22,23,24,25,26,27,28,29,30},
	{3,4,5,7,8,9,10,11,13,14,15,17,19,20,21,23,24,25,26,27,29},
	{1,2,3,4,6,7,8,10,12,13,15,16,18,19,20,21,22,23,24,25,26,27,28,29,30},
	{1,2,3,4,5,6,7,8,9,10,11,12,13,14,15,16,17,18,19,20,21,22,23,24,25,26,27,28,29,30},
	{3,4,5,7,8,9,10,11,13,14,15,17,19,20,21,23,24,25,26,27,29},
	{1,2,3,4,5,6,7,8,9,10,11,12,13,14,15,16,17,18,19,20,21,22,23,24,25,26,27,28,29,30},
	{3,4,5,7,8,9,10,11,13,14,15,17,19,20,21,23,24,25,26,27,29},
	{1,2,3,4,6,7,8,10,12,13,15,16,18,19,20,21,22,23,24,25,26,27,28,29,30},
	{1,3,4,6,7,8,10,12,13,15,16,18,19,20,21,23,24,25,26,27,28,30},
	{1,2,3,4,5,7,9,10,11,14,15,16,17,18,20,21,22,23,24,27,29},
	{1,2,3,4,5,6,7,8,9,10,11,12,14,15,16,17,18,19,20,21,22,23,24,25,27,28,29,30},
	{1,2,3,4,6,7,8,10,12,13,15,16,18,19,20,21,22,23,24,25,26,27,28,29,30},
	{1,2,3,4,5,6,7,8,9,10,11,12,13,14,15,16,17,18,19,20,21,22,23,24,25,26,27,28,29,30},
	{1,2,3,4,6,7,8,10,12,13,15,16,18,19,20,21,22,23,24,25,26,27,28,29,30},
	{1,2,3,4,5,6,7,8,9,10,11,12,13,14,15,16,17,18,19,20,21,22,23,24,25,26,27,28,29,30},
	{1,2,3,4,5,6,7,8,9,10,11,12,13,14,15,16,17,18,19,20,21,22,23,24,25,26,27,28,29,30},
	{1,2,3,4,6,7,8,10,12,15,16,18,19,20,21,22,23,24,25,27,28,29,30},
	{1,2,3,4,5,6,7,8,9,10,11,12,13,14,15,16,17,18,19,20,21,22,23,24,25,26,27,28,29,30},
	{1,2,3,4,5,7,8,9,10,11,13,14,15,16,17,18,19,20,21,22,23,24,25,26,27,29},
	{1,2,3,4,6,7,8,10,12,13,15,16,18,19,20,21,22,23,24,25,26,27,28,29,30},
	{1,2,3,4,6,7,8,10,12,13,15,16,18,19,20,21,22,23,24,25,26,27,28,29,30},
	{3,4,5,7,8,9,10,11,13,14,15,17,19,20,21,23,24,25,26,27,29},
	{1,4,5,6,7,8,9,10,11,12,14,15,16,17,18,19,20,23,24,25,27,28,29,30},
	{1,2,3,4,5,6,7,8,9,10,11,12,13,14,15,16,17,18,19,20,21,22,23,24,25,26,27,28,29,30},
	{1,2,3,4,5,6,7,8,9,10,11,12,13,14,15,16,17,18,19,20,21,22,23,24,25,26,27,28,29,30},
	{1,2,3,4,5,6,7,8,9,10,11,12,13,14,15,16,17,18,19,20,21,22,23,24,25,26,27,28,29,30},
	{1,2,3,4,5,6,7,8,9,10,11,12,13,14,15,16,17,18,19,20,21,22,23,24,25,26,27,28,29,30},
	{1,2,3,4,5,6,7,8,9,10,11,12,13,14,15,16,17,18,19,20,21,22,23,24,25,26,27,28,29,30},
	{1,2,3,4,5,7,9,10,11,14,15,16,17,18,20,21,22,23,24,27,29},
	{1,4,5,6,7,8,9,10,11,12,14,15,16,17,18,19,20,23,24,25,27,28,29,30},
	{1,2,3,4,5,6,7,8,9,10,11,12,13,14,15,16,17,18,19,20,21,22,23,24,25,26,27,28,29,30},
	{1,3,4,6,7,8,10,12,13,15,16,18,19,20,21,23,24,25,26,27,28,30},
	{1,2,3,4,6,7,8,10,12,15,16,18,19,20,21,22,23,24,25,27,28,29,30},
	{1,3,4,5,6,7,8,9,10,11,12,13,14,15,16,17,18,19,20,21,23,24,25,26,27,28,29,30},
	{1,2,3,4,5,6,7,8,9,10,11,12,13,14,15,16,17,18,19,20,21,22,23,24,25,26,27,28,29,30},
	{1,2,3,4,5,7,8,9,10,11,13,14,15,16,17,18,19,20,21,22,23,24,25,26,27,29},
	{1,2,3,4,5,7,9,10,11,14,15,16,17,18,20,21,22,23,24,27,29},
	{}];

POTENTIAL_ACT = [{2,3,4,5,7,8,10,12,13,14,15,16,17,18,19,20,21,22,23,24,25,27,28,29,30,31,32,33,34,35,36,37,38,39,40,41},
	{2,3,5,7,8,10,12,14,15,16,17,18,19,20,21,22,23,24,25,28,29,30,31,32,33,35,37,39,40,41},
	{2,3,4,5,6,7,8,9,10,11,12,13,14,15,16,17,18,19,20,21,22,23,24,25,26,28,29,30,31,32,33,35,36,37,38,39,40,41},
	{2,3,4,5,6,7,8,9,10,11,12,13,14,15,16,17,18,19,20,21,22,23,24,25,26,27,28,29,30,31,32,33,34,35,36,37,38,39,40,41},
	{2,3,4,5,6,8,9,10,11,14,15,17,19,20,22,23,26,27,28,29,30,31,32,33,34,35,38,39,40,41},
	{3,4,5,7,8,10,12,13,15,16,17,18,19,20,21,22,24,25,27,28,29,30,31,32,34,35,36,37,38,39},
	{2,3,4,5,6,7,8,9,10,11,12,13,14,15,16,17,18,19,20,21,22,23,24,25,26,27,28,29,30,31,32,33,34,35,36,37,38,39,40,41},
	{2,3,4,5,6,7,8,9,10,11,12,13,15,16,17,18,19,20,21,22,23,24,25,26,27,28,29,30,31,32,34,35,36,37,38,39,40},
	{2,3,4,5,6,8,9,10,11,14,15,17,19,20,22,23,26,27,28,29,30,31,32,33,34,35,38,39,40,41},
	{2,3,4,5,6,7,8,9,10,11,12,13,14,15,16,17,18,19,20,21,22,23,24,25,26,27,28,29,30,31,32,33,34,35,36,37,38,39,40,41},
	{2,3,4,5,6,8,9,10,11,14,15,17,19,20,22,23,26,27,28,29,30,31,32,33,34,35,38,39,40,41},
	{3,4,5,7,8,10,12,13,15,16,17,18,19,20,21,22,24,25,27,28,29,30,31,32,34,35,36,37,38,39},
	{2,3,4,5,6,7,8,9,10,11,12,13,16,17,18,19,20,22,23,24,25,26,28,29,30,31,32,35,36,38,39,40},
	{2,3,4,5,6,8,9,10,11,14,15,17,19,20,22,23,26,27,28,29,30,31,32,33,34,35,38,39,40,41},
	{2,3,4,5,6,7,8,9,10,11,12,13,14,15,16,17,18,19,20,21,22,23,24,25,26,27,28,29,30,31,32,33,34,35,36,37,38,39,40,41},
	{2,3,4,5,7,8,10,12,13,14,15,16,17,18,19,20,21,22,23,24,25,27,28,29,30,31,32,33,34,35,36,37,38,39,40,41},
	{2,3,4,5,6,8,9,10,11,14,15,17,19,20,22,23,26,27,28,29,30,31,32,33,34,35,38,39,40,41},
	{2,3,4,5,7,8,10,12,13,14,15,16,17,18,19,20,21,22,23,24,25,27,28,29,30,31,32,33,34,35,36,37,38,39,40,41},
	{2,3,4,5,6,7,8,9,10,11,12,13,15,16,17,18,19,20,21,22,23,24,25,26,27,28,29,30,31,32,34,35,36,37,38,39,40},
	{2,3,4,5,6,7,8,9,10,11,12,13,14,15,16,17,18,19,20,21,22,23,24,25,26,27,28,29,30,31,32,33,34,35,36,37,38,39,40,41},
	{2,3,4,5,6,7,8,9,10,11,12,13,14,15,16,17,18,19,20,21,22,23,24,25,26,28,29,30,31,32,33,35,36,37,38,39,40,41},
	{2,3,5,7,8,10,12,14,15,16,17,18,19,20,21,22,23,24,25,28,29,30,31,32,33,35,37,39,40,41},
	{2,3,4,5,6,7,8,9,10,11,12,13,14,15,16,17,18,19,20,21,22,23,24,25,26,27,28,29,30,31,32,33,34,35,36,37,38,39,40,41},
	{2,3,4,5,6,7,8,9,10,11,12,13,14,15,16,17,18,19,20,21,22,23,24,25,26,27,28,29,30,31,32,33,34,35,36,37,38,39,40,41},
	{2,3,4,5,6,7,8,9,10,11,12,13,15,16,17,18,19,20,21,22,23,24,25,26,27,28,29,30,31,32,34,35,36,37,38,39,40},
	{2,3,4,5,6,7,8,9,10,11,12,13,16,17,18,19,20,22,23,24,25,26,28,29,30,31,32,35,36,38,39,40},
	{2,3,4,5,6,7,8,9,10,11,12,13,14,15,16,17,18,19,20,21,22,23,24,25,26,27,28,29,30,31,32,33,34,35,36,37,38,39,40,41},
	{3,4,5,7,8,10,12,13,15,16,17,18,19,20,21,22,24,25,27,28,29,30,31,32,34,35,36,37,38,39},
	{2,3,4,5,6,7,8,9,10,11,12,14,15,16,17,18,19,20,21,22,23,24,25,26,27,28,29,30,31,32,33,34,35,37,38,39,40,41},
	{3,4,5,7,8,10,12,13,15,16,17,18,19,20,21,22,24,25,27,28,29,30,31,32,34,35,36,37,38,39}];
